p cnf 86 284
-4 2 0
-4 3 0
-2 -3 4 0
1 4 -5 0
-1 -4 -5 0
1 -4 5 0
-1 4 5 0
7 -5 0
7 6 0
5 -6 -7 0
8 4 0
8 2 0
-4 -2 -8 0
7 8 -9 0
-7 -8 -9 0
7 -8 9 0
-7 8 9 0
3 -11 -12 0
-3 11 -12 0
3 11 12 0
-3 -11 12 0
13 10 0
13 12 0
-10 -12 -13 0
13 14 0
-13 14 0
-2 14 -15 0
2 -14 -15 0
-2 -14 15 0
2 14 15 0
16 9 0
16 -15 0
-9 15 -16 0
6 -17 -18 0
-6 17 -18 0
6 17 18 0
-6 -17 18 0
18 6 -19 0
-18 -6 -19 0
18 -6 19 0
-18 6 19 0
-20 -6 0
-20 -19 0
6 19 20 0
18 -13 -21 0
-18 13 -21 0
18 13 21 0
-18 -13 21 0
-21 -22 -23 0
21 22 -23 0
-21 22 23 0
21 -22 23 0
-24 20 0
-24 -23 0
-20 23 24 0
25 -6 0
25 -1 0
6 1 -25 0
26 24 0
26 -25 0
-24 25 -26 0
-27 13 0
-27 -18 0
-13 18 27 0
-29 -11 0
-29 28 0
11 -28 29 0
23 -29 -30 0
-23 29 -30 0
23 29 30 0
-23 -29 30 0
31 -30 0
31 1 0
30 -1 -31 0
32 -27 0
32 31 0
27 -31 -32 0
27 -30 -33 0
-27 30 -33 0
27 30 33 0
-27 -30 33 0
-27 -33 -34 0
27 33 -34 0
-27 33 34 0
27 -33 34 0
35 17 0
35 -18 0
-17 18 -35 0
36 -6 0
36 -35 0
6 35 -36 0
-34 -36 -37 0
34 36 -37 0
-34 36 37 0
34 -36 37 0
32 -37 -38 0
-32 37 -38 0
32 37 38 0
-32 -37 38 0
39 26 0
39 -38 0
-26 38 -39 0
16 39 -40 0
-16 -39 -40 0
16 -39 40 0
-16 39 40 0
-42 18 0
-42 -41 0
-18 41 42 0
43 -35 0
43 -42 0
35 42 -43 0
-44 28 0
-44 -33 0
-28 33 44 0
-45 43 0
-45 -44 0
-43 44 45 0
-46 -45 0
-46 14 0
45 -14 46 0
47 14 0
47 11 0
-14 -11 -47 0
-48 -46 0
-48 -47 0
46 47 48 0
-49 -2 0
-49 18 0
2 -18 49 0
-50 -49 0
-50 43 0
49 -43 50 0
51 48 0
51 -50 0
-48 50 -51 0
52 -30 0
52 -41 0
30 41 -52 0
53 -5 0
53 -4 0
5 4 -53 0
54 5 0
54 -32 0
-5 32 -54 0
-55 54 0
-55 10 0
-54 -10 55 0
-56 -28 0
-56 35 0
28 -35 56 0
56 31 -57 0
-56 -31 -57 0
56 -31 57 0
-56 31 57 0
-58 -4 0
-58 23 0
4 -23 58 0
59 -57 0
59 -58 0
57 58 -59 0
60 55 0
60 -59 0
-55 59 -60 0
-61 53 0
-61 -60 0
-53 60 61 0
-63 62 0
-63 18 0
-62 -18 63 0
-64 3 0
-64 -1 0
-3 1 64 0
-65 -64 0
-65 -6 0
64 6 65 0
-66 63 0
-66 -65 0
-63 65 66 0
67 61 0
67 66 0
-61 -66 -67 0
-68 52 0
-68 67 0
-52 -67 68 0
69 51 0
69 68 0
-51 -68 -69 0
40 -69 -70 0
-40 69 -70 0
40 69 70 0
-40 -69 70 0
72 -28 0
72 13 0
28 -13 -72 0
-54 72 -73 0
54 -72 -73 0
-54 -72 73 0
54 72 73 0
-75 30 0
-75 74 0
-30 -74 75 0
76 -21 0
76 -75 0
21 75 -76 0
-19 76 -77 0
19 -76 -77 0
-19 -76 77 0
19 76 77 0
73 -77 -78 0
-73 77 -78 0
73 77 78 0
-73 -77 78 0
-71 -78 -79 0
71 78 -79 0
-71 78 79 0
71 -78 79 0
-81 22 0
-81 -80 0
-22 80 81 0
-82 -79 0
-82 -81 0
79 81 82 0
49 17 -83 0
-49 -17 -83 0
49 -17 83 0
-49 17 83 0
-84 20 0
-84 83 0
-20 -83 84 0
-85 82 0
-85 84 0
-82 -84 85 0
86 70 0
86 85 0
-70 -85 -86 0
-73 18 14 0
-70 64 0
4 59 -30 0
-33 19 -2 0
16 11 68 78 1 -14 0
-3 -68 31 -33 30 -52 0
-12 -3 -21 85 -57 0
10 33 -74 62 0
-56 -39 -77 0
11 44 73 -81 0
-12 66 0
-30 48 8 52 0
-40 -54 -45 -42 0
75 -47 49 -82 -78 0
66 67 -78 -45 44 0
86 42 48 78 -62 0
-7 -52 59 0
20 -53 -19 5 0
23 -18 0
53 67 -6 28 -61 0
16 83 -46 -65 54 0
32 33 67 -52 0
61 -60 -1 0
-13 -9 27 -36 5 46 0
-47 16 -36 -1 -54 0
56 39 65 -76 0
-82 -68 49 32 0
70 -19 -56 -63 25 40 0
-53 45 -40 -86 0
82 34 55 65 0
2 -54 56 -36 3 0
-16 40 47 -6 0
-22 -66 0
-69 31 45 -54 -43 0
-65 68 -70 0
-32 -30 0
-23 -38 64 -39 0
26 -19 0
48 -20 50 0
74 -1 20 7 -86 -81 0
53 42 30 85 0
-86 40 41 8 0
-73 -29 42 -10 0
-50 -31 0
12 -36 56 0
-48 -1 86 -83 21 31 0
-68 86 41 82 -40 0
86 0
